<number of tasks>
50

<cycle time>
1000

<order strength>
0.202


<task times>
1 645
2 589
3 510
4 496
5 475
6 646
7 505
8 308
9 414
10 465
11 497
12 353
13 357
14 549
15 358
16 572
17 392
18 482
19 743
20 752
21 571
22 527
23 626
24 541
25 386
26 754
27 539
28 610
29 492
30 464
31 377
32 439
33 463
34 439
35 415
36 408
37 631
38 426
39 634
40 358
41 445
42 528
43 668
44 440
45 444
46 552
47 450
48 607
49 284
50 382

<precedence relations>
1,12
2,12
3,12
4,12
5,7
5,8
5,9
5,11
6,10
7,12
8,12
9,13
9,14
10,17
10,18
11,15
11,16
11,19
12,20
12,21
12,22
12,23
13,24
14,25
14,26
18,27
20,31
20,34
21,33
24,29
25,30
26,28
27,32
28,35
29,37
30,36
31,38
32,39
33,40
33,44
35,41
36,43
37,42
38,43
39,44
39,45
41,47
42,46
43,49
45,48
45,50

<end>
